0 76 78
1 75 83
2 86 87
3 73 88
4 80 88
5 84 88
6 84 87
7 83 88
8 73 89
9 85 88
10 81 86
11 80 86
12 66 84
13 82 82
14 78 82
15 64 80
16 76 78
17 67 74
18 57 73
19 53 71
20 55 73
21 48 71
22 64 69
23 64 67
24 59 64
25 55 62
26 56 63
27 51 61
28 38 60
29 50 58
30 34 56
31 49 55
32 44 55
33 52 53
34 36 53
35 43 52
36 47 49
37 42 48
38 33 46
39 28 43
40 39 41
41 25 42
42 27 39
43 33 36
44 24 34
45 28 35
46 28 34
47 31 35
48 34 34
49 33 33
50 32 32
51 30 30
52 28 28
53 27 28
54 26 26
55 27 27
56 15 25
57 23 24
58 15 23
59 20 20
60 17 19
61 10 17
62 8 16
63 12 14
64 10 13
65 13 14
66 12 12
67 9 11
68 11 11
69 9 10
70 6 11
71 1 10
72 4 6
73 5 6
74 4 5
75 1 3
76 3 3
77 1 2
78 1 2

